\ LP format - for model browsing. Use MPS format to capture full model detail.
Minimize
  0 B30(0) + 0 B31(0) + 0 B35(0) + 0 B36(0) + 0 B37(0) + 0 B38(0) + 0 B39(0)
   + 0 B41(0) + 0 B45(0) + 0 B46(0) + 0 B47(0) + 0 B50(0) + 0 B51(0)
   + 0 B55(0) + 0 B59(0) + 0 B61(0) + 0 B62(0) + 0 B67(0) + 0 B71(0)
   + 0 B72(0) + 0 B73(0) + 0 B75(0) + 0 B76(0) + 0 B77(0) + 0 B78(0)
   + 0 B80(0) + 0 B81(0) + 0 B83(0) + 0 B85(0) + 0 B87(0) + 0 B90(0)
   + 0 B91(0) + 0 B92(0) + 0 B94(0) + 0 B95(0) + 0 B96(0) + 0 B98(0)
   + 0 B100(0) + 0 B102(0) + 0 B105(0) + 0 B106(0) + 0 B107(0) + 0 B108(0)
   + 0 B109(0) + 0 B110(0) + 0 B117(0) + 0 B118(0) + 0 B120(0) + 0 B121(0)
   + 0 B122(0) + 0 B123(0) + 0 B124(0) + 0 B125(0) + 0 B126(0) + 0 B132(0)
   + 0 B133(0) + 0 B135(0) + 0 B136(0) + 0 B137(0) + 0 B138(0) + 0 B139(0)
   + 0 B140(0) + 0 B142(0) + 0 B143(0) + 0 B145(0) + 0 B147(0) + 0 B149(0)
   + 0 B150(0) + 0 B151(0) + 0 B152(0) + 0 B153(0) + 0 B154(0) + 0 B155(0)
   + 0 B157(0) + 0 B158(0) + 0 B161(0) + 0 B163(0) + 0 B165(0) + 0 B166(0)
   + 0 B167(0) + 0 B168(0) + 0 B169(0) + 0 B170(0) + 0 B171(0) + 0 B172(0)
   + 0 B173(0) + 0 B174(0) + 0 B177(0) + 0 B180(0) + 0 B181(0) + 0 B182(0)
   + 0 B183(0) + 0 B184(0) + 0 B185(0) + 0 B186(0) + 0 B187(0) + 0 B188(0)
   + 0 B190(0) + 0 B191(0) + 0 B195(0) + 0 B196(0) + 0 B197(0) + 0 B198(0)
   + 0 B199(0) + 0 B200(0) + 0 B201(0) + 0 B202(0) + 0 B203(0) + 0 B205(0)
   + 0 B206(0) + 0 B207(0) + 0 B209(0) + 0 B210(0) + 0 B211(0) + 0 B212(0)
   + 0 B213(0) + 0 B214(0) + 0 B215(0) + 0 B216(0) + 0 B217(0) + 0 B218(0)
   + 0 B219(0) + 0 B220(0) + 0 B221(0) + 0 B222(0) + 0 B224(0) + 0 B225(0)
   + 0 B226(0) + 0 B227(0) + 0 B228(0) + 0 B229(0) + 0 B230(0) + 0 B231(0)
   + 0 B232(0) + 0 B233(0) + 0 B234(0) + 0 B235(0) + 0 B236(0) + 0 B238(0)
   + 0 B239(0) + 0 B240(0) + 0 B241(0) + 0 B242(0) + 0 B243(0) + 0 B244(0)
   + 0 B245(0) + 0 B246(0) + 0 B247(0) + 0 B248(0) + 0 B249(0) + 0 B250(0)
   + 0 B251(0) + 0 B252(0) + 0 B253(0) + 0 B254(0) + I285(1)
Subject To
 c0: - 2 B0(14) - 4 B1(10) - 4 B6(18) - 5 B7(14) - 5 B12(12) - 2 B13(18)
   - 3 B18(17) - 3 B19(17) - 2 B24(7) - 4 B25(11) - I255(16) - I256(12)
   - I261(19) - I262(15) - I267(13) - I268(19) - I273(19) - I274(19)
   - I279(9) - I280(13) + I285(1) >= 0
 c1: B0(14) + B1(10) = 1
 c2: B2(8) + B3(16) = 1
 c3: B4(13) + B5(15) = 1
 c4: B6(18) + B7(14) = 1
 c5: B8(18) + B9(14) = 1
 c6: B10(10) + B11(16) = 1
 c7: B12(12) + B13(18) = 1
 c8: B14(12) + B15(16) = 1
 c9: B16(8) + B17(18) = 1
 c10: B18(17) + B19(17) = 1
 c11: B20(17) + B21(9) = 1
 c12: B22(9) + B23(17) = 1
 c13: B24(7) + B25(11) = 1
 c14: B26(16) + B27(12) = 1
 c15: B28(12) + B29(16) = 1
 c16: - 1e+07 B0(14) + I255(16) <= 0
 c17: - 1e+07 B1(10) + I256(12) <= 0
 c18: - 1e+07 B2(8) + I257(8) <= 0
 c19: - 1e+07 B3(16) + I258(16) <= 0
 c20: - 1e+07 B4(13) + I259(14) <= 0
 c21: - 1e+07 B5(15) + I260(16) <= 0
 c22: - 1e+07 B6(18) + I261(19) <= 0
 c23: - 1e+07 B7(14) + I262(15) <= 0
 c24: - 1e+07 B8(18) + I263(19) <= 0
 c25: - 1e+07 B9(14) + I264(15) <= 0
 c26: - 1e+07 B10(10) + I265(10) <= 0
 c27: - 1e+07 B11(16) + I266(16) <= 0
 c28: - 1e+07 B12(12) + I267(13) <= 0
 c29: - 1e+07 B13(18) + I268(19) <= 0
 c30: - 1e+07 B14(12) + I269(12) <= 0
 c31: - 1e+07 B15(16) + I270(16) <= 0
 c32: - 1e+07 B16(8) + I271(9) <= 0
 c33: - 1e+07 B17(18) + I272(19) <= 0
 c34: - 1e+07 B18(17) + I273(19) <= 0
 c35: - 1e+07 B19(17) + I274(19) <= 0
 c36: - 1e+07 B20(17) + I275(19) <= 0
 c37: - 1e+07 B21(9) + I276(11) <= 0
 c38: - 1e+07 B22(9) + I277(10) <= 0
 c39: - 1e+07 B23(17) + I278(18) <= 0
 c40: - 1e+07 B24(7) + I279(9) <= 0
 c41: - 1e+07 B25(11) + I280(13) <= 0
 c42: - 1e+07 B26(16) + I281(17) <= 0
 c43: - 1e+07 B27(12) + I282(13) <= 0
 c44: - 1e+07 B28(12) + I283(12) <= 0
 c45: - 1e+07 B29(16) + I284(16) <= 0
 c46: - 5 B2(8) - 4 B3(16) + I255(16) + I256(12) - I257(8) - I258(16) >= 0
 c47: - 5 B4(13) - 3 B5(15) + I255(16) + I256(12) - I259(14) - I260(16)
   >= 0
 c48: - 2 B8(18) - 2 B9(14) + I261(19) + I262(15) - I263(19) - I264(15)
   >= 0
 c49: - 5 B10(10) - 2 B11(16) + I263(19) + I264(15) - I265(10) - I266(16)
   >= 0
 c50: - 3 B14(12) - 4 B15(16) - I269(12) - I270(16) + I271(9) + I272(19)
   >= 0
 c51: - 4 B16(8) - 2 B17(18) + I267(13) + I268(19) - I271(9) - I272(19)
   >= 0
 c52: - 3 B20(17) - 3 B21(9) + I273(19) + I274(19) - I275(19) - I276(11)
   >= 0
 c53: - 5 B22(9) - 2 B23(17) + I275(19) + I276(11) - I277(10) - I278(18)
   >= 0
 c54: - 2 B26(16) - 5 B27(12) + I279(9) + I280(13) - I281(17) - I282(13)
   >= 0
 c55: - 4 B28(12) - 4 B29(16) + I281(17) + I282(13) - I283(12) - I284(16)
   >= 0
 c56: - 1e+07 B0(14) - 1e+07 B4(13) + 1e+07 B32(2) - I255(16) + I259(14)
   >= -1.9999978e+07
 c57: - 1e+07 B0(14) - 1e+07 B4(13) - 1e+07 B32(2) + I255(16) - I259(14)
   >= -2.9999989e+07
 c58: - 1e+07 B0(14) - 1e+07 B7(14) + 1e+07 B33(2) - I255(16) + I262(15)
   >= -1.999999e+07
 c59: - 1e+07 B0(14) - 1e+07 B7(14) - 1e+07 B33(2) + I255(16) - I262(15)
   >= -2.9999987e+07
 c60: - 1e+07 B0(14) - 1e+07 B9(14) + 1e+07 B34(2) - I255(16) + I264(15)
   >= -1.9999973e+07
 c61: - 1e+07 B0(14) - 1e+07 B9(14) - 1e+07 B34(2) + I255(16) - I264(15)
   >= -2.9999993e+07
 c62: - 1e+07 B1(10) - 1e+07 B21(9) + 1e+07 B40(2) - I256(12) + I276(11)
   >= -1.9999987e+07
 c63: - 1e+07 B1(10) - 1e+07 B21(9) - 1e+07 B40(2) + I256(12) - I276(11)
   >= -2.9999991e+07
 c64: - 1e+07 B1(10) - 1e+07 B25(11) + 1e+07 B42(2) - I256(12) + I280(13)
   >= -1.9999987e+07
 c65: - 1e+07 B1(10) - 1e+07 B25(11) - 1e+07 B42(2) + I256(12) - I280(13)
   >= -2.9999994e+07
 c66: - 1e+07 B1(10) - 1e+07 B27(12) + 1e+07 B43(2) - I256(12) + I282(13)
   >= -1.999999e+07
 c67: - 1e+07 B1(10) - 1e+07 B27(12) - 1e+07 B43(2) + I256(12) - I282(13)
   >= -2.999998e+07
 c68: - 1e+07 B0(14) - 1e+07 B28(12) + 1e+07 B44(2) - I255(16) + I283(12)
   >= -1.9999994e+07
 c69: - 1e+07 B0(14) - 1e+07 B28(12) - 1e+07 B44(2) + I255(16) - I283(12)
   >= -2.9999993e+07
 c70: - 1e+07 B3(16) - 1e+07 B6(18) + 1e+07 B48(2) - I258(16) + I261(19)
   >= -1.9999992e+07
 c71: - 1e+07 B3(16) - 1e+07 B6(18) - 1e+07 B48(2) + I258(16) - I261(19)
   >= -2.999999e+07
 c72: - 1e+07 B3(16) - 1e+07 B8(18) + 1e+07 B49(2) - I258(16) + I263(19)
   >= -1.9999991e+07
 c73: - 1e+07 B3(16) - 1e+07 B8(18) - 1e+07 B49(2) + I258(16) - I263(19)
   >= -2.9999996e+07
 c74: - 1e+07 B3(16) - 1e+07 B15(16) + 1e+07 B52(2) - I258(16) + I270(16)
   >= -1.9999976e+07
 c75: - 1e+07 B3(16) - 1e+07 B15(16) - 1e+07 B52(2) + I258(16) - I270(16)
   >= -2.9999976e+07
 c76: - 1e+07 B2(8) - 1e+07 B16(8) + 1e+07 B53(2) - I257(8) + I271(9)
   >= -1.999998e+07
 c77: - 1e+07 B2(8) - 1e+07 B16(8) - 1e+07 B53(2) + I257(8) - I271(9)
   >= -2.9999994e+07
 c78: - 1e+07 B3(16) - 1e+07 B18(17) + 1e+07 B54(2) - I258(16) + I273(19)
   >= -1.9999986e+07
 c79: - 1e+07 B3(16) - 1e+07 B18(17) - 1e+07 B54(2) + I258(16) - I273(19)
   >= -2.9999994e+07
 c80: - 1e+07 B3(16) - 1e+07 B23(17) + 1e+07 B56(2) - I258(16) + I278(18)
   >= -1.9999976e+07
 c81: - 1e+07 B3(16) - 1e+07 B23(17) - 1e+07 B56(2) + I258(16) - I278(18)
   >= -2.9999983e+07
 c82: - 1e+07 B2(8) - 1e+07 B24(7) + 1e+07 B57(2) - I257(8) + I279(9)
   >= -1.9999975e+07
 c83: - 1e+07 B2(8) - 1e+07 B24(7) - 1e+07 B57(2) + I257(8) - I279(9)
   >= -2.9999995e+07
 c84: - 1e+07 B3(16) - 1e+07 B26(16) + 1e+07 B58(2) - I258(16) + I281(17)
   >= -1.999999e+07
 c85: - 1e+07 B3(16) - 1e+07 B26(16) - 1e+07 B58(2) + I258(16) - I281(17)
   >= -2.999999e+07
 c86: - 1e+07 B0(14) - 1e+07 B4(13) + 1e+07 B60(2) + I255(16) - I259(14)
   >= -1.9999989e+07
 c87: - 1e+07 B0(14) - 1e+07 B4(13) - 1e+07 B60(2) - I255(16) + I259(14)
   >= -2.9999978e+07
 c88: - 1e+07 B4(13) - 1e+07 B7(14) + 1e+07 B63(2) - I259(14) + I262(15)
   >= -1.9999991e+07
 c89: - 1e+07 B4(13) - 1e+07 B7(14) - 1e+07 B63(2) + I259(14) - I262(15)
   >= -2.9999993e+07
 c90: - 1e+07 B4(13) - 1e+07 B9(14) + 1e+07 B64(2) - I259(14) + I264(15)
   >= -1.9999992e+07
 c91: - 1e+07 B4(13) - 1e+07 B9(14) - 1e+07 B64(2) + I259(14) - I264(15)
   >= -2.9999986e+07
 c92: - 1e+07 B5(15) - 1e+07 B11(16) + 1e+07 B65(2) - I260(16) + I266(16)
   >= -1.9999988e+07
 c93: - 1e+07 B5(15) - 1e+07 B11(16) - 1e+07 B65(2) + I260(16) - I266(16)
   >= -2.9999983e+07
 c94: - 1e+07 B5(15) - 1e+07 B13(18) + 1e+07 B66(2) - I260(16) + I268(19)
   >= -1.9999982e+07
 c95: - 1e+07 B5(15) - 1e+07 B13(18) - 1e+07 B66(2) + I260(16) - I268(19)
   >= -2.999999e+07
 c96: - 1e+07 B5(15) - 1e+07 B17(18) + 1e+07 B68(2) - I260(16) + I272(19)
   >= -1.9999995e+07
 c97: - 1e+07 B5(15) - 1e+07 B17(18) - 1e+07 B68(2) + I260(16) - I272(19)
   >= -2.9999994e+07
 c98: - 1e+07 B5(15) - 1e+07 B19(17) + 1e+07 B69(2) - I260(16) + I274(19)
   >= -1.9999991e+07
 c99: - 1e+07 B5(15) - 1e+07 B19(17) - 1e+07 B69(2) + I260(16) - I274(19)
   >= -2.9999991e+07
 c100: - 1e+07 B5(15) - 1e+07 B20(17) + 1e+07 B70(2) - I260(16) + I275(19)
   >= -1.9999995e+07
 c101: - 1e+07 B5(15) - 1e+07 B20(17) - 1e+07 B70(2) + I260(16) - I275(19)
   >= -2.9999991e+07
 c102: - 1e+07 B4(13) - 1e+07 B28(12) + 1e+07 B74(4) - I259(14) + I283(12)
   >= -1.9999993e+07
 c103: - 1e+07 B4(13) - 1e+07 B28(12) - 1e+07 B74(4) + I259(14) - I283(12)
   >= -2.9999981e+07
 c104: - 1e+07 B5(15) - 1e+07 B29(16) + 1e+07 B74(4) - I260(16) + I284(16)
   >= -1.9999993e+07
 c105: - 1e+07 B5(15) - 1e+07 B29(16) - 1e+07 B74(4) + I260(16) - I284(16)
   >= -2.9999993e+07
 c106: - 1e+07 B6(18) - 1e+07 B8(18) + 1e+07 B79(4) - I261(19) + I263(19)
   >= -1.9999992e+07
 c107: - 1e+07 B6(18) - 1e+07 B8(18) - 1e+07 B79(4) + I261(19) - I263(19)
   >= -2.9999986e+07
 c108: - 1e+07 B7(14) - 1e+07 B9(14) + 1e+07 B79(4) - I262(15) + I264(15)
   >= -1.999999e+07
 c109: - 1e+07 B7(14) - 1e+07 B9(14) - 1e+07 B79(4) + I262(15) - I264(15)
   >= -2.9999986e+07
 c110: - 1e+07 B6(18) - 1e+07 B15(16) + 1e+07 B82(2) - I261(19) + I270(16)
   >= -1.9999986e+07
 c111: - 1e+07 B6(18) - 1e+07 B15(16) - 1e+07 B82(2) + I261(19) - I270(16)
   >= -2.9999986e+07
 c112: - 1e+07 B6(18) - 1e+07 B18(17) + 1e+07 B84(2) - I261(19) + I273(19)
   >= -1.999999e+07
 c113: - 1e+07 B6(18) - 1e+07 B18(17) - 1e+07 B84(2) + I261(19) - I273(19)
   >= -2.9999995e+07
 c114: - 1e+07 B6(18) - 1e+07 B23(17) + 1e+07 B86(2) - I261(19) + I278(18)
   >= -1.9999992e+07
 c115: - 1e+07 B6(18) - 1e+07 B23(17) - 1e+07 B86(2) + I261(19) - I278(18)
   >= -2.9999986e+07
 c116: - 1e+07 B6(18) - 1e+07 B26(16) + 1e+07 B88(2) - I261(19) + I281(17)
   >= -1.9999984e+07
 c117: - 1e+07 B6(18) - 1e+07 B26(16) - 1e+07 B88(2) + I261(19) - I281(17)
   >= -2.9999989e+07
 c118: - 1e+07 B7(14) - 1e+07 B28(12) + 1e+07 B89(2) - I262(15) + I283(12)
   >= -1.9999983e+07
 c119: - 1e+07 B7(14) - 1e+07 B28(12) - 1e+07 B89(2) + I262(15) - I283(12)
   >= -2.9999976e+07
 c120: - 1e+07 B6(18) - 1e+07 B8(18) + 1e+07 B93(4) + I261(19) - I263(19)
   >= -1.9999986e+07
 c121: - 1e+07 B6(18) - 1e+07 B8(18) - 1e+07 B93(4) - I261(19) + I263(19)
   >= -2.9999992e+07
 c122: - 1e+07 B7(14) - 1e+07 B9(14) + 1e+07 B93(4) + I262(15) - I264(15)
   >= -1.9999986e+07
 c123: - 1e+07 B7(14) - 1e+07 B9(14) - 1e+07 B93(4) - I262(15) + I264(15)
   >= -2.999999e+07
 c124: - 1e+07 B8(18) - 1e+07 B15(16) + 1e+07 B97(2) - I263(19) + I270(16)
   >= -1.9999986e+07
 c125: - 1e+07 B8(18) - 1e+07 B15(16) - 1e+07 B97(2) + I263(19) - I270(16)
   >= -2.9999991e+07
 c126: - 1e+07 B8(18) - 1e+07 B18(17) + 1e+07 B99(2) - I263(19) + I273(19)
   >= -1.9999993e+07
 c127: - 1e+07 B8(18) - 1e+07 B18(17) - 1e+07 B99(2) + I263(19) - I273(19)
   >= -2.9999989e+07
 c128: - 1e+07 B8(18) - 1e+07 B23(17) + 1e+07 B101(2) - I263(19) + I278(18)
   >= -1.9999994e+07
 c129: - 1e+07 B8(18) - 1e+07 B23(17) - 1e+07 B101(2) + I263(19) - I278(18)
   >= -2.999999e+07
 c130: - 1e+07 B8(18) - 1e+07 B26(16) + 1e+07 B103(2) - I263(19) + I281(17)
   >= -1.9999978e+07
 c131: - 1e+07 B8(18) - 1e+07 B26(16) - 1e+07 B103(2) + I263(19) - I281(17)
   >= -2.9999989e+07
 c132: - 1e+07 B9(14) - 1e+07 B28(12) + 1e+07 B104(2) - I264(15) + I283(12)
   >= -1.9999978e+07
 c133: - 1e+07 B9(14) - 1e+07 B28(12) - 1e+07 B104(2) + I264(15) - I283(12)
   >= -2.9999987e+07
 c134: - 1e+07 B10(10) - 1e+07 B12(12) + 1e+07 B111(4) - I265(10)
   + I267(13) >= -1.9999987e+07
 c135: - 1e+07 B10(10) - 1e+07 B12(12) - 1e+07 B111(4) + I265(10)
   - I267(13) >= -2.9999992e+07
 c136: - 1e+07 B11(16) - 1e+07 B13(18) + 1e+07 B111(4) - I266(16)
   + I268(19) >= -1.9999992e+07
 c137: - 1e+07 B11(16) - 1e+07 B13(18) - 1e+07 B111(4) + I266(16)
   - I268(19) >= -2.9999989e+07
 c138: - 1e+07 B10(10) - 1e+07 B14(12) + 1e+07 B112(2) - I265(10)
   + I269(12) >= -1.9999975e+07
 c139: - 1e+07 B10(10) - 1e+07 B14(12) - 1e+07 B112(2) + I265(10)
   - I269(12) >= -2.9999985e+07
 c140: - 1e+07 B11(16) - 1e+07 B17(18) + 1e+07 B113(2) - I266(16)
   + I272(19) >= -1.9999992e+07
 c141: - 1e+07 B11(16) - 1e+07 B17(18) - 1e+07 B113(2) + I266(16)
   - I272(19) >= -2.9999983e+07
 c142: - 1e+07 B11(16) - 1e+07 B19(17) + 1e+07 B114(2) - I266(16)
   + I274(19) >= -1.9999982e+07
 c143: - 1e+07 B11(16) - 1e+07 B19(17) - 1e+07 B114(2) + I266(16)
   - I274(19) >= -2.9999977e+07
 c144: - 1e+07 B11(16) - 1e+07 B20(17) + 1e+07 B115(2) - I266(16)
   + I275(19) >= -1.9999978e+07
 c145: - 1e+07 B11(16) - 1e+07 B20(17) - 1e+07 B115(2) + I266(16)
   - I275(19) >= -2.9999993e+07
 c146: - 1e+07 B10(10) - 1e+07 B22(9) + 1e+07 B116(2) - I265(10) + I277(10)
   >= -1.9999986e+07
 c147: - 1e+07 B10(10) - 1e+07 B22(9) - 1e+07 B116(2) + I265(10) - I277(10)
   >= -2.999999e+07
 c148: - 1e+07 B11(16) - 1e+07 B29(16) + 1e+07 B119(2) - I266(16)
   + I284(16) >= -1.9999983e+07
 c149: - 1e+07 B11(16) - 1e+07 B29(16) - 1e+07 B119(2) + I266(16)
   - I284(16) >= -2.9999991e+07
 c150: - 1e+07 B12(12) - 1e+07 B14(12) + 1e+07 B127(2) - I267(13)
   + I269(12) >= -1.999997e+07
 c151: - 1e+07 B12(12) - 1e+07 B14(12) - 1e+07 B127(2) + I267(13)
   - I269(12) >= -2.9999989e+07
 c152: - 1e+07 B13(18) - 1e+07 B17(18) + 1e+07 B128(2) - I268(19)
   + I272(19) >= -1.9999993e+07
 c153: - 1e+07 B13(18) - 1e+07 B17(18) - 1e+07 B128(2) + I268(19)
   - I272(19) >= -2.9999986e+07
 c154: - 1e+07 B13(18) - 1e+07 B19(17) + 1e+07 B129(2) - I268(19)
   + I274(19) >= -1.9999973e+07
 c155: - 1e+07 B13(18) - 1e+07 B19(17) - 1e+07 B129(2) + I268(19)
   - I274(19) >= -2.9999991e+07
 c156: - 1e+07 B13(18) - 1e+07 B20(17) + 1e+07 B130(2) - I268(19)
   + I275(19) >= -1.9999995e+07
 c157: - 1e+07 B13(18) - 1e+07 B20(17) - 1e+07 B130(2) + I268(19)
   - I275(19) >= -2.9999991e+07
 c158: - 1e+07 B12(12) - 1e+07 B22(9) + 1e+07 B131(2) - I267(13) + I277(10)
   >= -1.9999987e+07
 c159: - 1e+07 B12(12) - 1e+07 B22(9) - 1e+07 B131(2) + I267(13) - I277(10)
   >= -2.9999979e+07
 c160: - 1e+07 B13(18) - 1e+07 B29(16) + 1e+07 B134(2) - I268(19)
   + I284(16) >= -1.9999989e+07
 c161: - 1e+07 B13(18) - 1e+07 B29(16) - 1e+07 B134(2) + I268(19)
   - I284(16) >= -2.9999986e+07
 c162: - 1e+07 B12(12) - 1e+07 B14(12) + 1e+07 B141(2) + I267(13)
   - I269(12) >= -1.9999989e+07
 c163: - 1e+07 B12(12) - 1e+07 B14(12) - 1e+07 B141(2) - I267(13)
   + I269(12) >= -2.999997e+07
 c164: - 1e+07 B15(16) - 1e+07 B18(17) + 1e+07 B144(2) - I270(16)
   + I273(19) >= -1.9999992e+07
 c165: - 1e+07 B15(16) - 1e+07 B18(17) - 1e+07 B144(2) + I270(16)
   - I273(19) >= -2.9999972e+07
 c166: - 1e+07 B14(12) - 1e+07 B22(9) + 1e+07 B146(4) - I269(12) + I277(10)
   >= -1.9999977e+07
 c167: - 1e+07 B14(12) - 1e+07 B22(9) - 1e+07 B146(4) + I269(12) - I277(10)
   >= -2.9999989e+07
 c168: - 1e+07 B15(16) - 1e+07 B23(17) + 1e+07 B146(4) - I270(16)
   + I278(18) >= -1.999999e+07
 c169: - 1e+07 B15(16) - 1e+07 B23(17) - 1e+07 B146(4) + I270(16)
   - I278(18) >= -2.999999e+07
 c170: - 1e+07 B15(16) - 1e+07 B26(16) + 1e+07 B148(2) - I270(16)
   + I281(17) >= -1.9999992e+07
 c171: - 1e+07 B15(16) - 1e+07 B26(16) - 1e+07 B148(2) + I270(16)
   - I281(17) >= -2.9999986e+07
 c172: - 1e+07 B13(18) - 1e+07 B17(18) + 1e+07 B156(2) + I268(19)
   - I272(19) >= -1.9999986e+07
 c173: - 1e+07 B13(18) - 1e+07 B17(18) - 1e+07 B156(2) - I268(19)
   + I272(19) >= -2.9999993e+07
 c174: - 1e+07 B17(18) - 1e+07 B19(17) + 1e+07 B159(2) - I272(19)
   + I274(19) >= -1.9999996e+07
 c175: - 1e+07 B17(18) - 1e+07 B19(17) - 1e+07 B159(2) + I272(19)
   - I274(19) >= -2.9999977e+07
 c176: - 1e+07 B17(18) - 1e+07 B20(17) + 1e+07 B160(2) - I272(19)
   + I275(19) >= -1.9999983e+07
 c177: - 1e+07 B17(18) - 1e+07 B20(17) - 1e+07 B160(2) + I272(19)
   - I275(19) >= -2.9999977e+07
 c178: - 1e+07 B16(8) - 1e+07 B24(7) + 1e+07 B162(2) - I271(9) + I279(9)
   >= -1.9999992e+07
 c179: - 1e+07 B16(8) - 1e+07 B24(7) - 1e+07 B162(2) + I271(9) - I279(9)
   >= -2.9999994e+07
 c180: - 1e+07 B17(18) - 1e+07 B29(16) + 1e+07 B164(2) - I272(19)
   + I284(16) >= -1.999999e+07
 c181: - 1e+07 B17(18) - 1e+07 B29(16) - 1e+07 B164(2) + I272(19)
   - I284(16) >= -2.9999976e+07
 c182: - 1e+07 B19(17) - 1e+07 B20(17) + 1e+07 B175(2) - I274(19)
   + I275(19) >= -1.9999977e+07
 c183: - 1e+07 B19(17) - 1e+07 B20(17) - 1e+07 B175(2) + I274(19)
   - I275(19) >= -2.9999982e+07
 c184: - 1e+07 B18(17) - 1e+07 B23(17) + 1e+07 B176(2) - I273(19)
   + I278(18) >= -1.9999994e+07
 c185: - 1e+07 B18(17) - 1e+07 B23(17) - 1e+07 B176(2) + I273(19)
   - I278(18) >= -2.9999978e+07
 c186: - 1e+07 B18(17) - 1e+07 B26(16) + 1e+07 B178(2) - I273(19)
   + I281(17) >= -1.9999989e+07
 c187: - 1e+07 B18(17) - 1e+07 B26(16) - 1e+07 B178(2) + I273(19)
   - I281(17) >= -2.9999992e+07
 c188: - 1e+07 B19(17) - 1e+07 B29(16) + 1e+07 B179(2) - I274(19)
   + I284(16) >= -1.9999985e+07
 c189: - 1e+07 B19(17) - 1e+07 B29(16) - 1e+07 B179(2) + I274(19)
   - I284(16) >= -2.9999981e+07
 c190: - 1e+07 B19(17) - 1e+07 B20(17) + 1e+07 B189(2) + I274(19)
   - I275(19) >= -1.9999982e+07
 c191: - 1e+07 B19(17) - 1e+07 B20(17) - 1e+07 B189(2) - I274(19)
   + I275(19) >= -2.9999977e+07
 c192: - 1e+07 B21(9) - 1e+07 B25(11) + 1e+07 B192(2) - I276(11) + I280(13)
   >= -1.9999985e+07
 c193: - 1e+07 B21(9) - 1e+07 B25(11) - 1e+07 B192(2) + I276(11) - I280(13)
   >= -2.9999988e+07
 c194: - 1e+07 B21(9) - 1e+07 B27(12) + 1e+07 B193(2) - I276(11) + I282(13)
   >= -1.9999993e+07
 c195: - 1e+07 B21(9) - 1e+07 B27(12) - 1e+07 B193(2) + I276(11) - I282(13)
   >= -2.9999993e+07
 c196: - 1e+07 B20(17) - 1e+07 B29(16) + 1e+07 B194(2) - I275(19)
   + I284(16) >= -1.9999993e+07
 c197: - 1e+07 B20(17) - 1e+07 B29(16) - 1e+07 B194(2) + I275(19)
   - I284(16) >= -2.9999984e+07
 c198: - 1e+07 B18(17) - 1e+07 B23(17) + 1e+07 B204(2) + I273(19)
   - I278(18) >= -1.9999978e+07
 c199: - 1e+07 B18(17) - 1e+07 B23(17) - 1e+07 B204(2) - I273(19)
   + I278(18) >= -2.9999994e+07
 c200: - 1e+07 B23(17) - 1e+07 B26(16) + 1e+07 B208(2) - I278(18)
   + I281(17) >= -1.9999988e+07
 c201: - 1e+07 B23(17) - 1e+07 B26(16) - 1e+07 B208(2) + I278(18)
   - I281(17) >= -2.9999973e+07
 c202: - 1e+07 B25(11) - 1e+07 B27(12) + 1e+07 B223(2) - I280(13)
   + I282(13) >= -1.9999976e+07
 c203: - 1e+07 B25(11) - 1e+07 B27(12) - 1e+07 B223(2) + I280(13)
   - I282(13) >= -2.9999991e+07
 c204: - 1e+07 B25(11) - 1e+07 B27(12) + 1e+07 B237(2) + I280(13)
   - I282(13) >= -1.9999991e+07
 c205: - 1e+07 B25(11) - 1e+07 B27(12) - 1e+07 B237(2) - I280(13)
   + I282(13) >= -2.9999976e+07
 c206: - 2 B0(14) + I255(16) >= 0
 c207: I255(16) >= 0
 c208: - 2 B1(10) + I256(12) >= 0
 c209: I256(12) >= 0
 c210: - 2 B2(8) + I257(8) >= 0
 c211: I257(8) >= 0
 c212: - 2 B3(16) + I258(16) >= 0
 c213: I258(16) >= 0
 c214: I259(14) >= 0
 c215: I259(14) >= 0
 c216: I260(16) >= 0
 c217: I260(16) >= 0
 c218: - B6(18) + I261(19) >= 0
 c219: I261(19) >= 0
 c220: - B7(14) + I262(15) >= 0
 c221: I262(15) >= 0
 c222: - 2 B8(18) + I263(19) >= 0
 c223: I263(19) >= 0
 c224: - 2 B9(14) + I264(15) >= 0
 c225: I264(15) >= 0
 c226: - B10(10) + I265(10) >= 0
 c227: I265(10) >= 0
 c228: - B11(16) + I266(16) >= 0
 c229: I266(16) >= 0
 c230: - 3 B12(12) + I267(13) >= 0
 c231: I267(13) >= 0
 c232: - 3 B13(18) + I268(19) >= 0
 c233: I268(19) >= 0
 c234: - 2 B14(12) + I269(12) >= 0
 c235: I269(12) >= 0
 c236: - 2 B15(16) + I270(16) >= 0
 c237: I270(16) >= 0
 c238: - 3 B16(8) + I271(9) >= 0
 c239: I271(9) >= 0
 c240: - 3 B17(18) + I272(19) >= 0
 c241: I272(19) >= 0
 c242: I273(19) >= 0
 c243: I273(19) >= 0
 c244: I274(19) >= 0
 c245: I274(19) >= 0
 c246: I275(19) >= 0
 c247: I275(19) >= 0
 c248: I276(11) >= 0
 c249: I276(11) >= 0
 c250: I277(10) >= 0
 c251: I277(10) >= 0
 c252: I278(18) >= 0
 c253: I278(18) >= 0
 c254: I279(9) >= 0
 c255: I279(9) >= 0
 c256: I280(13) >= 0
 c257: I280(13) >= 0
 c258: - B26(16) + I281(17) >= 0
 c259: I281(17) >= 0
 c260: - B27(12) + I282(13) >= 0
 c261: I282(13) >= 0
 c262: - B28(12) + I283(12) >= 0
 c263: I283(12) >= 0
 c264: - B29(16) + I284(16) >= 0
 c265: I284(16) >= 0
Bounds
Binaries
 B0(14) B1(10) B2(8) B3(16) B4(13) B5(15) B6(18) B7(14) B8(18) B9(14)
 B10(10) B11(16) B12(12) B13(18) B14(12) B15(16) B16(8) B17(18) B18(17)
 B19(17) B20(17) B21(9) B22(9) B23(17) B24(7) B25(11) B26(16) B27(12)
 B28(12) B29(16) B30(0) B31(0) B32(2) B33(2) B34(2) B35(0) B36(0) B37(0)
 B38(0) B39(0) B40(2) B41(0) B42(2) B43(2) B44(2) B45(0) B46(0) B47(0)
 B48(2) B49(2) B50(0) B51(0) B52(2) B53(2) B54(2) B55(0) B56(2) B57(2)
 B58(2) B59(0) B60(2) B61(0) B62(0) B63(2) B64(2) B65(2) B66(2) B67(0)
 B68(2) B69(2) B70(2) B71(0) B72(0) B73(0) B74(4) B75(0) B76(0) B77(0)
 B78(0) B79(4) B80(0) B81(0) B82(2) B83(0) B84(2) B85(0) B86(2) B87(0)
 B88(2) B89(2) B90(0) B91(0) B92(0) B93(4) B94(0) B95(0) B96(0) B97(2)
 B98(0) B99(2) B100(0) B101(2) B102(0) B103(2) B104(2) B105(0) B106(0)
 B107(0) B108(0) B109(0) B110(0) B111(4) B112(2) B113(2) B114(2) B115(2)
 B116(2) B117(0) B118(0) B119(2) B120(0) B121(0) B122(0) B123(0) B124(0)
 B125(0) B126(0) B127(2) B128(2) B129(2) B130(2) B131(2) B132(0) B133(0)
 B134(2) B135(0) B136(0) B137(0) B138(0) B139(0) B140(0) B141(2) B142(0)
 B143(0) B144(2) B145(0) B146(4) B147(0) B148(2) B149(0) B150(0) B151(0)
 B152(0) B153(0) B154(0) B155(0) B156(2) B157(0) B158(0) B159(2) B160(2)
 B161(0) B162(2) B163(0) B164(2) B165(0) B166(0) B167(0) B168(0) B169(0)
 B170(0) B171(0) B172(0) B173(0) B174(0) B175(2) B176(2) B177(0) B178(2)
 B179(2) B180(0) B181(0) B182(0) B183(0) B184(0) B185(0) B186(0) B187(0)
 B188(0) B189(2) B190(0) B191(0) B192(2) B193(2) B194(2) B195(0) B196(0)
 B197(0) B198(0) B199(0) B200(0) B201(0) B202(0) B203(0) B204(2) B205(0)
 B206(0) B207(0) B208(2) B209(0) B210(0) B211(0) B212(0) B213(0) B214(0)
 B215(0) B216(0) B217(0) B218(0) B219(0) B220(0) B221(0) B222(0) B223(2)
 B224(0) B225(0) B226(0) B227(0) B228(0) B229(0) B230(0) B231(0) B232(0)
 B233(0) B234(0) B235(0) B236(0) B237(2) B238(0) B239(0) B240(0) B241(0)
 B242(0) B243(0) B244(0) B245(0) B246(0) B247(0) B248(0) B249(0) B250(0)
 B251(0) B252(0) B253(0) B254(0)
Generals
 I255(16) I256(12) I257(8) I258(16) I259(14) I260(16) I261(19) I262(15)
 I263(19) I264(15) I265(10) I266(16) I267(13) I268(19) I269(12) I270(16)
 I271(9) I272(19) I273(19) I274(19) I275(19) I276(11) I277(10) I278(18)
 I279(9) I280(13) I281(17) I282(13) I283(12) I284(16) I285(1)
End
